3 100
81+89+85+87+92+95+90+91+94+93+86+84+88+80+82+96+78+74+70+76+72+99+57+65+66+67+28+26+49+51+53+61+60+55+68+47+45+43+41+39+21+17+1+2+6+9+7+33+3+22+10+63+64+23+0+18+16+34+14+35+29+37+19+12+32+13+5+8+24+4+20+31+11+15+36+30+38+46+48+69+56+59+62+54+52+44+42+40+27+25+50+58+98+73+77+71+75+79+97+83
81+89+85+87+92+95+90+91+94+93+86+84+88+80+82+96+78+74+70+76+72+99+57+65+66+67+28+26+49+51+53+61+60+55+68+47+45+43+41+39+21+17+1+2+6+9+7+33+3+22+10+63+64+23+0+18+16+34+14+35+29+37+19+12+32+13+5+8+24+4+20+31+11+15+36+30+38+46+48+69+56+59+62+54+52+44+42+40+27+25+50+58+98+73+77+71+75+79+97+83
81+89+85+87+92+95+90+91+94+93+86+84+88+80+82+96+78+74+70+76+72+99+57+65+66+67+28+26+49+51+53+61+60+55+68+47+45+43+41+39+21+17+1+2+6+9+7+33+3+22+10+63+64+23+0+18+16+34+14+35+29+37+19+12+32+13+5+8+24+4+20+31+11+15+36+30+38+46+48+69+56+59+62+54+52+44+42+40+27+25+50+58+98+73+77+71+75+79+97+83
